db/inputs/22012178161035826846280734256143312475.smt2
(set-logic QF_FP)
(declare-const x0 (_ FloatingPoint 11 53))
(declare-const x1 (_ FloatingPoint 11 53))
(declare-const x2 (_ FloatingPoint 11 53))
(declare-const x3 (_ FloatingPoint 11 53))
(declare-const x4 (_ FloatingPoint 11 53))
(declare-const x5 (_ FloatingPoint 11 53))
(declare-const x6 (_ FloatingPoint 11 53))
(declare-const x7 (_ FloatingPoint 11 53))
(assert (fp.leq (fp.sub RNE (fp.neg x0) (fp.div RNE x1 x4)) (fp.neg (fp.mul RNE x4 x4))))
(assert (fp.lt (fp.mul RNE (fp.add RNE x4 x3) (fp.add RNE x0 x7)) (fp.neg (fp.mul RNE x1 x4))))
(assert (fp.geq (fp.mul RNE (fp.div RNE x3 x5) (fp.mul RNE x5 x5)) (fp.add RNE (fp.neg x6) (fp.neg x0))))
(assert (fp.lt (fp.div RNE (fp.sub RNE x1 x4) (fp.add RNE x1 x6)) (fp.sub RNE (fp.neg x3) (fp.add RNE x0 x5))))
(assert (fp.gt (fp.neg (fp.div RNE x6 x6)) (fp.sub RNE (fp.add RNE x3 x1) (fp.mul RNE x1 x5))))
(assert (fp.gt (fp.add RNE (fp.mul RNE x7 x3) (fp.add RNE x3 x5)) (fp.sub RNE (fp.sub RNE x1 x4) (fp.div RNE x0 x2))))
(assert (fp.geq (fp.neg (fp.sub RNE x1 x3)) (fp.mul RNE (fp.sub RNE x1 x2) (fp.mul RNE x2 x1))))
(assert (fp.eq (fp.sub RNE (fp.mul RNE x1 x7) (fp.div RNE x2 x1)) (fp.div RNE (fp.div RNE x7 x0) (fp.add RNE x2 x4))))
(assert (fp.geq (fp.mul RNE (fp.add RNE x1 x3) (fp.div RNE x7 x7)) (fp.add RNE (fp.div RNE x2 x6) (fp.sub RNE x6 x4))))
(assert (fp.eq (fp.neg (fp.div RNE x7 x2)) (fp.mul RNE (fp.add RNE x1 x6) (fp.mul RNE x2 x7))))
(assert (fp.geq (fp.add RNE (fp.mul RNE x0 x5) (fp.div RNE x2 x1)) (fp.add RNE (fp.sub RNE x2 x2) (fp.mul RNE x4 x3))))
(assert (fp.geq (fp.add RNE (fp.neg x7) (fp.sub RNE x6 x3)) (fp.add RNE (fp.sub RNE x1 x6) (fp.add RNE x0 x2))))
(check-sat)
