db/data/22012178161035826846280734256143312475.z3.out
-------------------
2500.221028132
